# Solution for model r3_t9_m6_3
# Finished Task: 9 / 9
# Makespan: 525.0, Total Distance: 415.0, Total Time: 0.0364
# R O S F
0 0 4 0.0 0.0
1 1 10 0.0 0.0
2 2 7 0.0 0.0
3 2 -1 299.0 338.0
4 0 11 182.0 221.0
5 2 3 234.0 267.0
6 1 -1 502.0 525.0
7 2 5 177.0 208.0
8 1 6 383.0 416.0
9 1 8 237.0 270.0
10 1 9 142.0 177.0
11 0 -1 466.0 502.0
